p cnf 13 24
-3 4 1 8 -6 0
-9 12 7 -2 0
11 -5 0
11 7 5 0
7 -5 -10 -2 -3 -4 -1 -6 -11 13 0
-5 3 12 13 10 0
-9 7 0
12 -7 11 -13 0
11 -2 4 -13 0
8 -7 0
13 8 -7 6 1 3 0
2 4 11 12 6 10 0
-5 -10 -1 0
10 -5 4 -9 0
8 2 11 4 5 10 1 12 -7 -13 6 -3 0
-11 -7 -5 -2 0
9 -3 -1 0
-2 -12 0
-11 -6 -1 0
-2 -8 -13 12 0
10 6 -8 -2 0
-13 10 -7 0
3 7 0
8 -12 1 -5 0
